20 64 
1 5 1
1 6 1
1 7 1
1 8 1
1 9 1
1 11 1
1 14 1
2 5 1
2 6 1
2 12 1
2 17 1
2 20 1
3 5 1
3 6 1
3 8 1
3 9 1
3 10 1
3 12 1
3 13 1
3 16 1
3 20 1
4 5 1
4 7 1
4 16 1
5 6 1
5 7 1
5 8 1
5 10 1
5 11 1
5 12 1
5 13 1
5 15 1
5 16 1
5 17 1
5 18 1
5 19 1
5 20 1
6 7 1
6 8 1
6 9 1
6 10 1
6 11 1
6 14 1
6 15 1
6 16 1
6 17 1
6 18 1
7 9 1
7 13 1
7 18 1
8 11 1
8 15 1
9 10 1
9 12 1
9 19 1
10 13 1
10 14 1
10 15 1
11 14 1
11 17 1
12 19 1
12 20 1
15 19 1
17 18 1
